NAME:15007
COMMENT: From "On the generation of Metric TSP instances with a large integrality gap by branch-and-cut" (Vercesi, Gualandi, Mastrolilli, Gambardella) - https://arxiv.org/abs/2109.02454
TYPE: TSP
DIMENSION: 15
EDGE_WEIGHT_TYPE: EXPLICIT
EDGE_WEIGHT_FORMAT: UPPER_ROW
EDGE_WEIGHT_SECTION
147 316 205 63 21 95 169 84 58 126 105 169 42 132 169 58 84 126 169 316 63 205 21 42 95 105 132 184 253 295 295 147 232 331 190 211 221 274 258 142 184 111 331 121 147 79 100 37 163 74 42 85 232 21 121 63 42 106 21 69 74 190 63 79 105 84 148 21 111 221 106 37 148 127 74 64 37 253 184 295 274 295 211 258 142 42 21 85 42 69 184 163 111 100 74 21 74 84 111 64 63 90 127 37 90 
EOF